p cnf 113 231
1 0
2 0
3 0
4 0
5 0
-6 0
7 0
8 0
9 0
10 0
-11 12 0
12 -13 0
11 13 -12 0
1 -12 0
-1 12 0
-13 14 0
-15 14 0
13 15 -14 0
11 -14 0
-11 14 0
-16 17 0
-18 17 0
16 18 -17 0
2 -17 0
-2 17 0
-19 20 0
-21 20 0
19 21 -20 0
16 -20 0
-16 20 0
-22 23 0
23 -24 0
22 24 -23 0
19 -23 0
-19 23 0
-25 26 0
-27 26 0
25 27 -26 0
22 -26 0
-22 26 0
-28 29 0
29 -30 0
28 30 -29 0
25 -29 0
-25 29 0
-31 32 0
-33 32 0
31 33 -32 0
28 -32 0
-28 32 0
-27 34 0
-30 34 0
-33 34 0
-35 34 0
27 30 33 35 -34 0
31 -34 0
-31 34 0
-36 37 0
37 -38 0
36 38 -37 0
3 -37 0
-3 37 0
-4 39 0
39 -40 0
4 40 -39 0
36 -39 0
-36 39 0
-41 42 0
-43 42 0
41 43 -42 0
4 -42 0
-4 42 0
-44 45 0
45 -46 0
44 46 -45 0
41 -45 0
-41 45 0
-47 48 0
48 -49 0
47 49 -48 0
44 -48 0
-44 48 0
-50 51 0
-52 51 0
50 52 -51 0
47 -51 0
-47 51 0
-46 53 0
-49 53 0
-52 53 0
53 -54 0
46 49 52 54 -53 0
50 -53 0
-50 53 0
-55 56 0
56 -57 0
55 57 -56 0
5 -56 0
-5 56 0
-6 58 0
58 -59 0
6 59 -58 0
55 -58 0
-55 58 0
6 -60 0
-6 60 0
-61 62 0
62 -63 0
61 63 -62 0
7 -62 0
-7 62 0
-64 65 0
-66 65 0
64 66 -65 0
61 -65 0
-61 65 0
-67 68 0
-69 68 0
67 69 -68 0
64 -68 0
-64 68 0
-70 71 0
-72 71 0
70 72 -71 0
67 -71 0
-67 71 0
-69 73 0
-72 73 0
73 -74 0
69 72 74 -73 0
70 -73 0
-70 73 0
-75 76 0
-77 76 0
75 77 -76 0
8 -76 0
-8 76 0
-78 79 0
-80 79 0
78 80 -79 0
75 -79 0
-75 79 0
-81 82 0
-83 82 0
81 83 -82 0
78 -82 0
-78 82 0
-1 84 0
84 -85 0
1 85 -84 0
81 -84 0
-81 84 0
-86 87 0
-88 87 0
86 88 -87 0
9 -87 0
-9 87 0
-89 90 0
-91 90 0
89 91 -90 0
86 -90 0
-86 90 0
-92 93 0
-94 93 0
92 94 -93 0
89 -93 0
-89 93 0
-70 95 0
95 -96 0
70 96 -95 0
92 -95 0
-92 95 0
-97 98 0
98 -99 0
97 99 -98 0
10 -98 0
-10 98 0
-100 101 0
-102 101 0
100 102 -101 0
97 -101 0
-97 101 0
-11 103 0
-104 103 0
11 104 -103 0
100 -103 0
-100 103 0
13 -105 0
-105 -15 0
-105 -18 0
-105 -21 0
24 -105 0
-105 -27 0
30 -105 0
-105 -33 0
-105 -35 0
38 -105 0
40 -105 0
-105 -43 0
46 -105 0
49 -105 0
-105 -52 0
54 -105 0
57 -105 0
59 -105 0
-105 -60 0
63 -105 0
-105 -66 0
-105 -69 0
-105 -72 0
74 -105 0
-105 -77 0
-105 -80 0
-105 -83 0
85 -105 0
-105 -88 0
-105 -91 0
-105 -94 0
96 -105 0
99 -105 0
-105 -102 0
-105 -104 0
105 0
-106 0
-107 0
-108 0
-109 0
-110 0
-111 0
-112 0
-113 0
